networks/zoo_45_462/zoo_45_462.txt
Number of groups: 22
Flow 6: {1 12} {12 21} {21 7} {7 30} 
Flow 7: {21 8} {8 31} 
Flow 9: {12 11} {11 19} {19 20} {20 10} {10 33} 
Flow 13: {16 14} {14 37} 
Flow 23: {2 12} {12 17} {17 3} {3 26} 
Flow 57: {3 17} {17 16} {16 39} 
Flow 71: {4 17} {17 9} {9 32} 
Flow 102: {5 18} {18 19} {19 42} 
Flow 115: {6 19} {19 11} {11 34} 
Flow 117: {20 13} {13 36} 
Flow 146: {7 21} {21 44} 
Flow 158: {8 21} {21 12} {12 35} 
Flow 170: {9 17} {17 12} {12 2} {2 25} 
Flow 194: {19 18} {18 5} {5 28} 
Flow 205: {10 20} {20 19} {19 17} {17 40} 
Flow 227: {11 12} {12 18} {18 41} 
Flow 271: {13 20} {20 43} 
Flow 277: {14 16} {16 17} {17 4} {4 27} 
Flow 279: {17 19} {19 6} {6 29} 
Flow 315: {15 17} {17 22} {22 45} 
Flow 358: {18 12} {12 1} {1 24} 
Flow 456: {22 17} {17 15} {15 38} 
Time taken running everything: 2 seconds
