networks/zoo_45_462/zoo_45_462.sol
<?xml version = "1.0" encoding="UTF-8" standalone="yes"?>
<CPLEXSolution version="1.2">
 <header
   problemName="networks/zoo_45_462/zoo_45_462.lp"
   solutionName="incumbent"
   solutionIndex="-1"
   objectiveValue="22"
   solutionTypeValue="3"
   solutionTypeString="primal"
   solutionStatusValue="101"
   solutionStatusString="integer optimal solution"
   solutionMethodString="mip"
   primalFeasible="1"
   dualFeasible="1"
   MIPNodes="0"
   MIPIterations="1694"
   writeLevel="3"/>
 <quality
   epInt="1.0000000000000001e-05"
   epRHS="9.9999999999999995e-07"
   maxIntInfeas="0"
   maxPrimalInfeas="0"
   maxX="4"
   maxSlack="10"/>
 <variables>
  <variable name="Y(6,7)" index="226" value="1"/>
  <variable name="Y(7,8)" index="271" value="1"/>
  <variable name="Y(9,10)" index="361" value="1"/>
  <variable name="Y(13,14)" index="541" value="1"/>
  <variable name="Y(23,3)" index="970" value="1"/>
  <variable name="Y(57,16)" index="2479" value="1"/>
  <variable name="Y(71,9)" index="3088" value="1"/>
  <variable name="Y(102,19)" index="4462" value="1"/>
  <variable name="Y(115,11)" index="5026" value="1"/>
  <variable name="Y(117,13)" index="5116" value="1"/>
  <variable name="Y(146,21)" index="6400" value="1"/>
  <variable name="Y(158,12)" index="6919" value="1"/>
  <variable name="Y(170,2)" index="7437" value="1"/>
  <variable name="Y(194,5)" index="8496" value="1"/>
  <variable name="Y(205,17)" index="8992" value="1"/>
  <variable name="Y(227,18)" index="9961" value="1"/>
  <variable name="Y(271,20)" index="11899" value="1"/>
  <variable name="Y(277,4)" index="12147" value="1"/>
  <variable name="Y(279,6)" index="12237" value="1"/>
  <variable name="Y(315,22)" index="13837" value="1"/>
  <variable name="Y(358,1)" index="15708" value="1"/>
  <variable name="Y(456,15)" index="20034" value="1"/>
  <variable name="X(1,12,6)" index="20333" value="1"/>
  <variable name="X(1,24,358)" index="21147" value="1"/>
  <variable name="X(2,12,23)" index="21274" value="1"/>
  <variable name="X(2,25,170)" index="21883" value="1"/>
  <variable name="X(3,17,57)" index="22232" value="1"/>
  <variable name="X(3,26,23)" index="22660" value="1"/>
  <variable name="X(4,17,71)" index="23170" value="1"/>
  <variable name="X(4,27,277)" index="23838" value="1"/>
  <variable name="X(5,18,102)" index="24125" value="1"/>
  <variable name="X(5,28,194)" index="24679" value="1"/>
  <variable name="X(6,19,115)" index="25062" value="1"/>
  <variable name="X(6,29,279)" index="25688" value="1"/>
  <variable name="X(7,21,146)" index="26017" value="1"/>
  <variable name="X(7,30,6)" index="26339" value="1"/>
  <variable name="X(8,21,158)" index="26953" value="1"/>
  <variable name="X(8,31,7)" index="27264" value="1"/>
  <variable name="X(9,17,170)" index="27889" value="1"/>
  <variable name="X(9,32,71)" index="28252" value="1"/>
  <variable name="X(10,20,205)" index="28848" value="1"/>
  <variable name="X(10,33,9)" index="29114" value="1"/>
  <variable name="X(11,12,227)" index="29794" value="1"/>
  <variable name="X(11,19,9)" index="30038" value="1"/>
  <variable name="X(11,34,115)" index="30606" value="1"/>
  <variable name="X(12,1,358)" index="31311" value="1"/>
  <variable name="X(12,2,170)" index="31585" value="1"/>
  <variable name="X(12,11,9)" index="31886" value="1"/>
  <variable name="X(12,17,23)" index="32362" value="1"/>
  <variable name="X(12,18,227)" index="33028" value="1"/>
  <variable name="X(12,21,6)" index="33269" value="1"/>
  <variable name="X(12,35,158)" index="33883" value="1"/>
  <variable name="X(13,20,271)" index="34458" value="1"/>
  <variable name="X(13,36,117)" index="34766" value="1"/>
  <variable name="X(14,16,277)" index="35388" value="1"/>
  <variable name="X(14,37,13)" index="35586" value="1"/>
  <variable name="X(15,17,315)" index="36350" value="1"/>
  <variable name="X(15,38,456)" index="36953" value="1"/>
  <variable name="X(16,14,13)" index="36972" value="1"/>
  <variable name="X(16,17,277)" index="37698" value="1"/>
  <variable name="X(16,39,57)" index="37940" value="1"/>
  <variable name="X(17,3,23)" index="38368" value="1"/>
  <variable name="X(17,4,277)" index="39084" value="1"/>
  <variable name="X(17,9,71)" index="39340" value="1"/>
  <variable name="X(17,12,170)" index="39901" value="1"/>
  <variable name="X(17,15,456)" index="40649" value="1"/>
  <variable name="X(17,16,57)" index="40712" value="1"/>
  <variable name="X(17,19,279)" index="41396" value="1"/>
  <variable name="X(17,22,315)" index="41894" value="1"/>
  <variable name="X(17,40,205)" index="42246" value="1"/>
  <variable name="X(18,5,194)" index="42697" value="1"/>
  <variable name="X(18,12,358)" index="43323" value="1"/>
  <variable name="X(18,19,102)" index="43529" value="1"/>
  <variable name="X(18,41,227)" index="44116" value="1"/>
  <variable name="X(19,6,279)" index="44630" value="1"/>
  <variable name="X(19,11,115)" index="44928" value="1"/>
  <variable name="X(19,17,205)" index="45480" value="1"/>
  <variable name="X(19,18,194)" index="45931" value="1"/>
  <variable name="X(19,20,9)" index="46208" value="1"/>
  <variable name="X(19,42,102)" index="46763" value="1"/>
  <variable name="X(20,10,9)" index="47132" value="1"/>
  <variable name="X(20,13,117)" index="47702" value="1"/>
  <variable name="X(20,19,205)" index="48252" value="1"/>
  <variable name="X(20,43,271)" index="48780" value="1"/>
  <variable name="X(21,7,6)" index="48977" value="1"/>
  <variable name="X(21,8,7)" index="49440" value="1"/>
  <variable name="X(21,12,158)" index="50053" value="1"/>
  <variable name="X(21,44,146)" index="50503" value="1"/>
  <variable name="X(22,17,456)" index="51275" value="1"/>
  <variable name="X(22,45,315)" index="51596" value="1"/>
  <variable name="C(6,12)" index="51765" value="1"/>
  <variable name="C(6,21)" index="51766" value="2"/>
  <variable name="C(6,7)" index="51767" value="3"/>
  <variable name="C(7,8)" index="51771" value="1"/>
  <variable name="C(9,11)" index="51778" value="1"/>
  <variable name="C(9,19)" index="51779" value="2"/>
  <variable name="C(9,20)" index="51780" value="3"/>
  <variable name="C(9,10)" index="51781" value="4"/>
  <variable name="C(13,14)" index="51797" value="1"/>
  <variable name="C(23,12)" index="51832" value="1"/>
  <variable name="C(23,17)" index="51833" value="2"/>
  <variable name="C(23,3)" index="51834" value="3"/>
  <variable name="C(57,17)" index="51970" value="1"/>
  <variable name="C(57,16)" index="51971" value="2"/>
  <variable name="C(71,17)" index="52023" value="1"/>
  <variable name="C(71,9)" index="52024" value="2"/>
  <variable name="C(102,18)" index="52149" value="1"/>
  <variable name="C(102,19)" index="52150" value="1.9999999999999998"/>
  <variable name="C(115,19)" index="52207" value="1"/>
  <variable name="C(115,11)" index="52208" value="2"/>
  <variable name="C(117,13)" index="52216" value="1"/>
  <variable name="C(146,21)" index="52344" value="1"/>
  <variable name="C(158,21)" index="52399" value="1"/>
  <variable name="C(158,12)" index="52400" value="2"/>
  <variable name="C(170,17)" index="52455" value="1"/>
  <variable name="C(170,12)" index="52456" value="2"/>
  <variable name="C(170,2)" index="52457" value="3"/>
  <variable name="C(194,18)" index="52555" value="1"/>
  <variable name="C(194,5)" index="52556" value="2"/>
  <variable name="C(205,20)" index="52609" value="1"/>
  <variable name="C(205,19)" index="52610" value="2"/>
  <variable name="C(205,17)" index="52611" value="3"/>
  <variable name="C(227,12)" index="52692" value="1"/>
  <variable name="C(227,18)" index="52693" value="2"/>
  <variable name="C(271,20)" index="52860" value="1"/>
  <variable name="C(277,16)" index="52887" value="1"/>
  <variable name="C(277,17)" index="52888" value="2"/>
  <variable name="C(277,4)" index="52889" value="3"/>
  <variable name="C(279,19)" index="52899" value="1"/>
  <variable name="C(279,6)" index="52900" value="2"/>
  <variable name="C(315,17)" index="53048" value="1"/>
  <variable name="C(315,22)" index="53049" value="2"/>
  <variable name="C(358,12)" index="53189" value="1"/>
  <variable name="C(358,1)" index="53190" value="2"/>
  <variable name="C(456,17)" index="53546" value="1"/>
  <variable name="C(456,15)" index="53547" value="2"/>
 </variables>
</CPLEXSolution>
